2
4
40
1 1.3 1.55 1.75 2.1
43 20 7 27 10 14 20 19 48 9 47 45 25 25 20 28 35 37 42 40 49 30 24 31 25 12 10 14 20 43 38 8 40 25 24 43 12 9 48 20 36 5 32 31 40 19 30 34 19 34 15 14 46 32 31 13 16 23 29 16 24 25 7 23 18 10 22 16 28 5 45 31 30 17 32 43 41 45 29 6 36 18 29 21 5 35 47 28 28 11 22 6 37 12 14 14 5 27 47 6 23 14 23 29 49 23 39 10 21 42 30 27 30 29 44 35 19 19 8 19 43 45 25 27 29 14 9 32 36 33 35 42 6 26 21 23 5 36 8 27 18 21 27 43 15 30 30 49 14 44 41 31 42 17 21 48 40 10 14 21 